NAME : local_16
TYPE : ATSP
DIMENSION : 9
EDGE_WEIGHT_TYPE : EXPLICIT
EDGE_WEIGHT_FORMAT : FULL_MATRIX
EDGE_WEIGHT_SECTION
0 10000000 10000000 395 523 251 467 10000000 348 
0 0 385 10000000 10000000 10000000 10000000 372 10000000 
0 385 0 10000000 10000000 10000000 10000000 141 10000000 
0 10000000 10000000 0 290 451 176 10000000 189 
0 10000000 10000000 290 0 426 201 10000000 283 
0 10000000 10000000 451 426 0 435 10000000 337 
0 10000000 10000000 176 201 435 0 10000000 138 
0 372 141 10000000 10000000 10000000 10000000 0 10000000 
0 10000000 10000000 10000000 10000000 10000000 10000000 10000000 0 
EOF